Route #1: 1 1 41 16 33 30 29 13 15 37 36 1 
Route #2: 1 49 50 32 10 12 17 44 3 51 1 
Route #3: 1 23 43 42 22 28 34 35 7 26 6 1 
Route #4: 1 24 40 25 31 11 19 1 
Route #5: 1 2 4 46 54 27 45 5 1 
Route #6: 1 21 48 47 20 8 14 53 1 
Route #7: 1 18 9 39 38 52 1 

Cost 1004.65
Time 0.7448


 * Another infos *

 Iterations: 55 Time: 0.7448 sec - 0.0124 min - 0.0002 horas
0.0000 h 0.0124 min
Problem dimension: 55
